



(declare-const TMP_BV_8 (_ BitVec 8))
(declare-const TMP_BV_16 (_ BitVec 16))
(declare-const TMP_BV_32 (_ BitVec 32))
(declare-const TMP_BV_64 (_ BitVec 64))
(declare-const TMP_BV_128 (_ BitVec 128))
(declare-const TMP_BV_256 (_ BitVec 256))
(declare-const TMP_BOOL Bool)
(declare-const rbx (_ BitVec 64))
(declare-const rax (_ BitVec 64))
(declare-const rcx (_ BitVec 64))
(declare-const rdx (_ BitVec 64))
(declare-const rsp (_ BitVec 64))
(declare-const rip (_ BitVec 64))
(declare-const ymm1 (_ BitVec 256))
(declare-const ymm2 (_ BitVec 256))
(declare-const ymm3 (_ BitVec 256))
(declare-const ymm0 (_ BitVec 256))
(declare-const zf Bool)
(declare-const sf Bool)
(declare-const cf Bool)
(declare-const pf Bool)
(declare-const af Bool)
(declare-const of Bool)

; Uninterpreted binary function declaration
(declare-fun comisd ((_ BitVec 64) (_ BitVec 64)) (_ BitVec 2))
(declare-fun comiss ((_ BitVec 32) (_ BitVec 32)) (_ BitVec 2))
(declare-fun    cvt_single_to_fp16_rm   ((_ BitVec 32) (_ BitVec 8)) (_ BitVec 16) )
(declare-fun    cvt_single_to_int32_rm  ((_ BitVec 32) (_ BitVec 8)) (_ BitVec 32) )
(declare-fun    cvt_double_to_int64_rm  ((_ BitVec 64) (_ BitVec 8)) (_ BitVec 64) )

(declare-fun add_double ((_ BitVec 64) (_ BitVec 64)) (_ BitVec 64))
(declare-fun add_single ((_ BitVec 32) (_ BitVec 32)) (_ BitVec 32))
(declare-fun sub_double ((_ BitVec 64) (_ BitVec 64)) (_ BitVec 64))
(declare-fun sub_single ((_ BitVec 32) (_ BitVec 32)) (_ BitVec 32))
(declare-fun div_double ((_ BitVec 64) (_ BitVec 64)) (_ BitVec 64))
(declare-fun div_single ((_ BitVec 32) (_ BitVec 32)) (_ BitVec 32))
(declare-fun mul_double ((_ BitVec 64) (_ BitVec 64)) (_ BitVec 64))
(declare-fun mul_single ((_ BitVec 32) (_ BitVec 32)) (_ BitVec 32))
(declare-fun maxcmp_double ((_ BitVec 64) (_ BitVec 64)) (_ BitVec 1))
(declare-fun maxcmp_single ((_ BitVec 32) (_ BitVec 32)) (_ BitVec 1))
(declare-fun mincmp_double ((_ BitVec 64) (_ BitVec 64)) (_ BitVec 1))
(declare-fun mincmp_single ((_ BitVec 32) (_ BitVec 32)) (_ BitVec 1))

(declare-fun idiv_quotient_int8   ((_ BitVec 16) (_ BitVec 8)) (_ BitVec 8))
(declare-fun idiv_remainder_int8  ((_ BitVec 16) (_ BitVec 8)) (_ BitVec 8))
(declare-fun idiv_quotient_int16  ((_ BitVec 32) (_ BitVec 16)) (_ BitVec 16))
(declare-fun idiv_remainder_int16 ((_ BitVec 32) (_ BitVec 16)) (_ BitVec 16))
(declare-fun idiv_quotient_int32  ((_ BitVec 64) (_ BitVec 32)) (_ BitVec 32))
(declare-fun idiv_remainder_int32 ((_ BitVec 64) (_ BitVec 32)) (_ BitVec 32))
(declare-fun idiv_quotient_int64  ((_ BitVec 128) (_ BitVec 64)) (_ BitVec 64))
(declare-fun idiv_remainder_int64 ((_ BitVec 128) (_ BitVec 64)) (_ BitVec 64))
(declare-fun div_quotient_int8   ((_ BitVec 16) (_ BitVec 8)) (_ BitVec 8))
(declare-fun div_remainder_int8  ((_ BitVec 16) (_ BitVec 8)) (_ BitVec 8))
(declare-fun div_quotient_int16  ((_ BitVec 32) (_ BitVec 16)) (_ BitVec 16))
(declare-fun div_remainder_int16 ((_ BitVec 32) (_ BitVec 16)) (_ BitVec 16))
(declare-fun div_quotient_int32  ((_ BitVec 64) (_ BitVec 32)) (_ BitVec 32))
(declare-fun div_remainder_int32 ((_ BitVec 64) (_ BitVec 32)) (_ BitVec 32))
(declare-fun div_quotient_int64  ((_ BitVec 128) (_ BitVec 64)) (_ BitVec 64))
(declare-fun div_remainder_int64 ((_ BitVec 128) (_ BitVec 64)) (_ BitVec 64))

; Uninterpreted unary function declaration
(declare-fun    cvt_half_to_single      ((_ BitVec 16)) (_ BitVec 32) )
(declare-fun    cvt_double_to_int64_truncate     ((_ BitVec 64)) (_ BitVec 64) )
(declare-fun    cvt_single_to_int64_truncate     ((_ BitVec 32)) (_ BitVec 64) )

(declare-fun approx_reciprocal_double       ((_ BitVec 64)) (_ BitVec 64) )
(declare-fun approx_reciprocal_single       ((_ BitVec 32)) (_ BitVec 32) )
(declare-fun sqrt_double                    ((_ BitVec 64)) (_ BitVec 64) )
(declare-fun sqrt_single                    ((_ BitVec 32)) (_ BitVec 32) )
(declare-fun approx_reciprocal_sqrt_double  ((_ BitVec 64)) (_ BitVec 64) )
(declare-fun approx_reciprocal_sqrt_single  ((_ BitVec 32)) (_ BitVec 32) )

(declare-fun cvt_single_to_double           ((_ BitVec 32)) (_ BitVec 64) )
(declare-fun cvt_double_to_single           ((_ BitVec 64)) (_ BitVec 32) )

(declare-fun cvt_single_to_int32            ((_ BitVec 32)) (_ BitVec 32) )
(declare-fun cvt_single_to_int32_truncate   ((_ BitVec 32)) (_ BitVec 32) )
(declare-fun cvt_single_to_int64            ((_ BitVec 32)) (_ BitVec 64) )
(declare-fun cvt_double_to_int32            ((_ BitVec 64)) (_ BitVec 32) )
(declare-fun cvt_double_to_int32_truncate   ((_ BitVec 64)) (_ BitVec 32) )
(declare-fun cvt_double_to_int64            ((_ BitVec 64)) (_ BitVec 64) )

(declare-fun cvt_int32_to_single            ((_ BitVec 32)) (_ BitVec 32) )
(declare-fun cvt_int32_to_double            ((_ BitVec 32)) (_ BitVec 64) )
(declare-fun cvt_int64_to_single            ((_ BitVec 64)) (_ BitVec 32) )
(declare-fun cvt_int64_to_double            ((_ BitVec 64)) (_ BitVec 64) )

; Uninterpreted ternary function declaration
(declare-fun cmp_double_pred ((_ BitVec 64) (_ BitVec 64) (_ BitVec 8)) (_ BitVec 1))
(declare-fun cmp_single_pred ((_ BitVec 32) (_ BitVec 32) (_ BitVec 8)) (_ BitVec 1))

(declare-fun vfmadd132_double ((_ BitVec 64) (_ BitVec 64) (_ BitVec 64)) (_ BitVec 64))
(declare-fun vfmadd132_single ((_ BitVec 32) (_ BitVec 32) (_ BitVec 32)) (_ BitVec 32))
(declare-fun vfmadd231_double ((_ BitVec 64) (_ BitVec 64) (_ BitVec 64)) (_ BitVec 64))
(declare-fun vfmadd231_single ((_ BitVec 32) (_ BitVec 32) (_ BitVec 32)) (_ BitVec 32))
(declare-fun vfmadd213_double ((_ BitVec 64) (_ BitVec 64) (_ BitVec 64)) (_ BitVec 64))
(declare-fun vfmadd213_single ((_ BitVec 32) (_ BitVec 32) (_ BitVec 32)) (_ BitVec 32))
(declare-fun vfmsub132_double ((_ BitVec 64) (_ BitVec 64) (_ BitVec 64)) (_ BitVec 64))
(declare-fun vfmsub132_single ((_ BitVec 32) (_ BitVec 32) (_ BitVec 32)) (_ BitVec 32))
(declare-fun vfmsub231_double ((_ BitVec 64) (_ BitVec 64) (_ BitVec 64)) (_ BitVec 64))
(declare-fun vfmsub231_single ((_ BitVec 32) (_ BitVec 32) (_ BitVec 32)) (_ BitVec 32))
(declare-fun vfmsub213_double ((_ BitVec 64) (_ BitVec 64) (_ BitVec 64)) (_ BitVec 64))
(declare-fun vfmsub213_single ((_ BitVec 32) (_ BitVec 32) (_ BitVec 32)) (_ BitVec 32))
(declare-fun vfnmadd132_double ((_ BitVec 64) (_ BitVec 64) (_ BitVec 64)) (_ BitVec 64))
(declare-fun vfnmadd132_single ((_ BitVec 32) (_ BitVec 32) (_ BitVec 32)) (_ BitVec 32))
(declare-fun vfnmsub132_double ((_ BitVec 64) (_ BitVec 64) (_ BitVec 64)) (_ BitVec 64))
(declare-fun vfnmsub132_single ((_ BitVec 32) (_ BitVec 32) (_ BitVec 32)) (_ BitVec 32))


( push )
( echo "vpaddusb_ymm_ymm_m256::ymm1")
(assert (not (=
(let ((a!1 ((_ extract 8 8)
(bvadd (concat #b0 ((_ extract 255 248) ymm2))
(concat #b0 ((_ extract 255 248) TMP_BV_256)))))
(a!2 ((_ extract 7 0)
(bvadd (concat #b0 ((_ extract 255 248) ymm2))
(concat #b0 ((_ extract 255 248) TMP_BV_256)))))
(a!3 ((_ extract 8 8)
(bvadd (concat #b0 ((_ extract 247 240) ymm2))
(concat #b0 ((_ extract 247 240) TMP_BV_256)))))
(a!4 ((_ extract 7 0)
(bvadd (concat #b0 ((_ extract 247 240) ymm2))
(concat #b0 ((_ extract 247 240) TMP_BV_256)))))
(a!5 ((_ extract 8 8)
(bvadd (concat #b0 ((_ extract 239 232) ymm2))
(concat #b0 ((_ extract 239 232) TMP_BV_256)))))
(a!6 ((_ extract 7 0)
(bvadd (concat #b0 ((_ extract 239 232) ymm2))
(concat #b0 ((_ extract 239 232) TMP_BV_256)))))
(a!7 ((_ extract 8 8)
(bvadd (concat #b0 ((_ extract 231 224) ymm2))
(concat #b0 ((_ extract 231 224) TMP_BV_256)))))
(a!8 ((_ extract 7 0)
(bvadd (concat #b0 ((_ extract 231 224) ymm2))
(concat #b0 ((_ extract 231 224) TMP_BV_256)))))
(a!9 ((_ extract 8 8)
(bvadd (concat #b0 ((_ extract 223 216) ymm2))
(concat #b0 ((_ extract 223 216) TMP_BV_256)))))
(a!10 ((_ extract 7 0)
(bvadd (concat #b0 ((_ extract 223 216) ymm2))
(concat #b0 ((_ extract 223 216) TMP_BV_256)))))
(a!11 ((_ extract 8 8)
(bvadd (concat #b0 ((_ extract 215 208) ymm2))
(concat #b0 ((_ extract 215 208) TMP_BV_256)))))
(a!12 ((_ extract 7 0)
(bvadd (concat #b0 ((_ extract 215 208) ymm2))
(concat #b0 ((_ extract 215 208) TMP_BV_256)))))
(a!13 ((_ extract 8 8)
(bvadd (concat #b0 ((_ extract 207 200) ymm2))
(concat #b0 ((_ extract 207 200) TMP_BV_256)))))
(a!14 ((_ extract 7 0)
(bvadd (concat #b0 ((_ extract 207 200) ymm2))
(concat #b0 ((_ extract 207 200) TMP_BV_256)))))
(a!15 ((_ extract 8 8)
(bvadd (concat #b0 ((_ extract 199 192) ymm2))
(concat #b0 ((_ extract 199 192) TMP_BV_256)))))
(a!16 ((_ extract 7 0)
(bvadd (concat #b0 ((_ extract 199 192) ymm2))
(concat #b0 ((_ extract 199 192) TMP_BV_256)))))
(a!17 ((_ extract 8 8)
(bvadd (concat #b0 ((_ extract 191 184) ymm2))
(concat #b0 ((_ extract 191 184) TMP_BV_256)))))
(a!18 ((_ extract 7 0)
(bvadd (concat #b0 ((_ extract 191 184) ymm2))
(concat #b0 ((_ extract 191 184) TMP_BV_256)))))
(a!19 ((_ extract 8 8)
(bvadd (concat #b0 ((_ extract 183 176) ymm2))
(concat #b0 ((_ extract 183 176) TMP_BV_256)))))
(a!20 ((_ extract 7 0)
(bvadd (concat #b0 ((_ extract 183 176) ymm2))
(concat #b0 ((_ extract 183 176) TMP_BV_256)))))
(a!21 ((_ extract 8 8)
(bvadd (concat #b0 ((_ extract 175 168) ymm2))
(concat #b0 ((_ extract 175 168) TMP_BV_256)))))
(a!22 ((_ extract 7 0)
(bvadd (concat #b0 ((_ extract 175 168) ymm2))
(concat #b0 ((_ extract 175 168) TMP_BV_256)))))
(a!23 ((_ extract 8 8)
(bvadd (concat #b0 ((_ extract 167 160) ymm2))
(concat #b0 ((_ extract 167 160) TMP_BV_256)))))
(a!24 ((_ extract 7 0)
(bvadd (concat #b0 ((_ extract 167 160) ymm2))
(concat #b0 ((_ extract 167 160) TMP_BV_256)))))
(a!25 ((_ extract 8 8)
(bvadd (concat #b0 ((_ extract 159 152) ymm2))
(concat #b0 ((_ extract 159 152) TMP_BV_256)))))
(a!26 ((_ extract 7 0)
(bvadd (concat #b0 ((_ extract 159 152) ymm2))
(concat #b0 ((_ extract 159 152) TMP_BV_256)))))
(a!27 ((_ extract 8 8)
(bvadd (concat #b0 ((_ extract 151 144) ymm2))
(concat #b0 ((_ extract 151 144) TMP_BV_256)))))
(a!28 ((_ extract 7 0)
(bvadd (concat #b0 ((_ extract 151 144) ymm2))
(concat #b0 ((_ extract 151 144) TMP_BV_256)))))
(a!29 ((_ extract 8 8)
(bvadd (concat #b0 ((_ extract 143 136) ymm2))
(concat #b0 ((_ extract 143 136) TMP_BV_256)))))
(a!30 ((_ extract 7 0)
(bvadd (concat #b0 ((_ extract 143 136) ymm2))
(concat #b0 ((_ extract 143 136) TMP_BV_256)))))
(a!31 ((_ extract 8 8)
(bvadd (concat #b0 ((_ extract 135 128) ymm2))
(concat #b0 ((_ extract 135 128) TMP_BV_256)))))
(a!32 ((_ extract 7 0)
(bvadd (concat #b0 ((_ extract 135 128) ymm2))
(concat #b0 ((_ extract 135 128) TMP_BV_256)))))
(a!33 ((_ extract 8 8)
(bvadd (concat #b0 ((_ extract 127 120) ymm2))
(concat #b0 ((_ extract 127 120) TMP_BV_256)))))
(a!34 ((_ extract 7 0)
(bvadd (concat #b0 ((_ extract 127 120) ymm2))
(concat #b0 ((_ extract 127 120) TMP_BV_256)))))
(a!35 ((_ extract 8 8)
(bvadd (concat #b0 ((_ extract 119 112) ymm2))
(concat #b0 ((_ extract 119 112) TMP_BV_256)))))
(a!36 ((_ extract 7 0)
(bvadd (concat #b0 ((_ extract 119 112) ymm2))
(concat #b0 ((_ extract 119 112) TMP_BV_256)))))
(a!37 ((_ extract 8 8)
(bvadd (concat #b0 ((_ extract 111 104) ymm2))
(concat #b0 ((_ extract 111 104) TMP_BV_256)))))
(a!38 ((_ extract 7 0)
(bvadd (concat #b0 ((_ extract 111 104) ymm2))
(concat #b0 ((_ extract 111 104) TMP_BV_256)))))
(a!39 ((_ extract 8 8)
(bvadd (concat #b0 ((_ extract 103 96) ymm2))
(concat #b0 ((_ extract 103 96) TMP_BV_256)))))
(a!40 ((_ extract 7 0)
(bvadd (concat #b0 ((_ extract 103 96) ymm2))
(concat #b0 ((_ extract 103 96) TMP_BV_256)))))
(a!41 ((_ extract 8 8)
(bvadd (concat #b0 ((_ extract 95 88) ymm2))
(concat #b0 ((_ extract 95 88) TMP_BV_256)))))
(a!42 ((_ extract 7 0)
(bvadd (concat #b0 ((_ extract 95 88) ymm2))
(concat #b0 ((_ extract 95 88) TMP_BV_256)))))
(a!43 ((_ extract 8 8)
(bvadd (concat #b0 ((_ extract 87 80) ymm2))
(concat #b0 ((_ extract 87 80) TMP_BV_256)))))
(a!44 ((_ extract 7 0)
(bvadd (concat #b0 ((_ extract 87 80) ymm2))
(concat #b0 ((_ extract 87 80) TMP_BV_256)))))
(a!45 ((_ extract 8 8)
(bvadd (concat #b0 ((_ extract 79 72) ymm2))
(concat #b0 ((_ extract 79 72) TMP_BV_256)))))
(a!46 ((_ extract 7 0)
(bvadd (concat #b0 ((_ extract 79 72) ymm2))
(concat #b0 ((_ extract 79 72) TMP_BV_256)))))
(a!47 ((_ extract 8 8)
(bvadd (concat #b0 ((_ extract 71 64) ymm2))
(concat #b0 ((_ extract 71 64) TMP_BV_256)))))
(a!48 ((_ extract 7 0)
(bvadd (concat #b0 ((_ extract 71 64) ymm2))
(concat #b0 ((_ extract 71 64) TMP_BV_256)))))
(a!49 ((_ extract 8 8)
(bvadd (concat #b0 ((_ extract 63 56) ymm2))
(concat #b0 ((_ extract 63 56) TMP_BV_256)))))
(a!50 ((_ extract 7 0)
(bvadd (concat #b0 ((_ extract 63 56) ymm2))
(concat #b0 ((_ extract 63 56) TMP_BV_256)))))
(a!51 ((_ extract 8 8)
(bvadd (concat #b0 ((_ extract 55 48) ymm2))
(concat #b0 ((_ extract 55 48) TMP_BV_256)))))
(a!52 ((_ extract 7 0)
(bvadd (concat #b0 ((_ extract 55 48) ymm2))
(concat #b0 ((_ extract 55 48) TMP_BV_256)))))
(a!53 ((_ extract 8 8)
(bvadd (concat #b0 ((_ extract 47 40) ymm2))
(concat #b0 ((_ extract 47 40) TMP_BV_256)))))
(a!54 ((_ extract 7 0)
(bvadd (concat #b0 ((_ extract 47 40) ymm2))
(concat #b0 ((_ extract 47 40) TMP_BV_256)))))
(a!55 ((_ extract 8 8)
(bvadd (concat #b0 ((_ extract 39 32) ymm2))
(concat #b0 ((_ extract 39 32) TMP_BV_256)))))
(a!56 ((_ extract 7 0)
(bvadd (concat #b0 ((_ extract 39 32) ymm2))
(concat #b0 ((_ extract 39 32) TMP_BV_256)))))
(a!57 ((_ extract 8 8)
(bvadd (concat #b0 ((_ extract 31 24) ymm2))
(concat #b0 ((_ extract 31 24) TMP_BV_256)))))
(a!58 ((_ extract 7 0)
(bvadd (concat #b0 ((_ extract 31 24) ymm2))
(concat #b0 ((_ extract 31 24) TMP_BV_256)))))
(a!59 ((_ extract 8 8)
(bvadd (concat #b0 ((_ extract 23 16) ymm2))
(concat #b0 ((_ extract 23 16) TMP_BV_256)))))
(a!60 ((_ extract 7 0)
(bvadd (concat #b0 ((_ extract 23 16) ymm2))
(concat #b0 ((_ extract 23 16) TMP_BV_256)))))
(a!61 ((_ extract 8 8)
(bvadd (concat #b0 ((_ extract 15 8) ymm2))
(concat #b0 ((_ extract 15 8) TMP_BV_256)))))
(a!62 ((_ extract 7 0)
(bvadd (concat #b0 ((_ extract 15 8) ymm2))
(concat #b0 ((_ extract 15 8) TMP_BV_256)))))
(a!63 ((_ extract 8 8)
(bvadd (concat #b0 ((_ extract 7 0) ymm2))
(concat #b0 ((_ extract 7 0) TMP_BV_256)))))
(a!64 ((_ extract 7 0)
(bvadd (concat #b0 ((_ extract 7 0) ymm2))
(concat #b0 ((_ extract 7 0) TMP_BV_256))))))
(let ((a!65 (concat (ite (= a!59 #b1) #xff a!60)
(concat (ite (= a!61 #b1) #xff a!62)
(ite (= a!63 #b1) #xff a!64)))))
(let ((a!66 (concat (ite (= a!55 #b1) #xff a!56)
(concat (ite (= a!57 #b1) #xff a!58) a!65))))
(let ((a!67 (concat (ite (= a!51 #b1) #xff a!52)
(concat (ite (= a!53 #b1) #xff a!54) a!66))))
(let ((a!68 (concat (ite (= a!47 #b1) #xff a!48)
(concat (ite (= a!49 #b1) #xff a!50) a!67))))
(let ((a!69 (concat (ite (= a!43 #b1) #xff a!44)
(concat (ite (= a!45 #b1) #xff a!46) a!68))))
(let ((a!70 (concat (ite (= a!39 #b1) #xff a!40)
(concat (ite (= a!41 #b1) #xff a!42) a!69))))
(let ((a!71 (concat (ite (= a!35 #b1) #xff a!36)
(concat (ite (= a!37 #b1) #xff a!38) a!70))))
(let ((a!72 (concat (ite (= a!31 #b1) #xff a!32)
(concat (ite (= a!33 #b1) #xff a!34) a!71))))
(let ((a!73 (concat (ite (= a!27 #b1) #xff a!28)
(concat (ite (= a!29 #b1) #xff a!30) a!72))))
(let ((a!74 (concat (ite (= a!23 #b1) #xff a!24)
(concat (ite (= a!25 #b1) #xff a!26) a!73))))
(let ((a!75 (concat (ite (= a!19 #b1) #xff a!20)
(concat (ite (= a!21 #b1) #xff a!22) a!74))))
(let ((a!76 (concat (ite (= a!15 #b1) #xff a!16)
(concat (ite (= a!17 #b1) #xff a!18) a!75))))
(let ((a!77 (concat (ite (= a!11 #b1) #xff a!12)
(concat (ite (= a!13 #b1) #xff a!14) a!76))))
(let ((a!78 (concat (ite (= a!7 #b1) #xff a!8)
(concat (ite (= a!9 #b1) #xff a!10) a!77))))
(let ((a!79 (concat (ite (= a!3 #b1) #xff a!4)
(concat (ite (= a!5 #b1) #xff a!6) a!78))))
(concat (ite (= a!1 #b1) #xff a!2) a!79)))))))))))))))))

(let ((a!1 ((_ extract 8 8)
(bvadd (concat #b0 ((_ extract 255 248) ymm2))
(concat #b0 ((_ extract 255 248) TMP_BV_256)))))
(a!2 ((_ extract 7 0)
(bvadd (concat #b0 ((_ extract 255 248) ymm2))
(concat #b0 ((_ extract 255 248) TMP_BV_256)))))
(a!3 ((_ extract 8 8)
(bvadd (concat #b0 ((_ extract 247 240) ymm2))
(concat #b0 ((_ extract 247 240) TMP_BV_256)))))
(a!4 ((_ extract 7 0)
(bvadd (concat #b0 ((_ extract 247 240) ymm2))
(concat #b0 ((_ extract 247 240) TMP_BV_256)))))
(a!5 ((_ extract 8 8)
(bvadd (concat #b0 ((_ extract 239 232) ymm2))
(concat #b0 ((_ extract 239 232) TMP_BV_256)))))
(a!6 ((_ extract 7 0)
(bvadd (concat #b0 ((_ extract 239 232) ymm2))
(concat #b0 ((_ extract 239 232) TMP_BV_256)))))
(a!7 ((_ extract 8 8)
(bvadd (concat #b0 ((_ extract 231 224) ymm2))
(concat #b0 ((_ extract 231 224) TMP_BV_256)))))
(a!8 ((_ extract 7 0)
(bvadd (concat #b0 ((_ extract 231 224) ymm2))
(concat #b0 ((_ extract 231 224) TMP_BV_256)))))
(a!9 ((_ extract 8 8)
(bvadd (concat #b0 ((_ extract 223 216) ymm2))
(concat #b0 ((_ extract 223 216) TMP_BV_256)))))
(a!10 ((_ extract 7 0)
(bvadd (concat #b0 ((_ extract 223 216) ymm2))
(concat #b0 ((_ extract 223 216) TMP_BV_256)))))
(a!11 ((_ extract 8 8)
(bvadd (concat #b0 ((_ extract 215 208) ymm2))
(concat #b0 ((_ extract 215 208) TMP_BV_256)))))
(a!12 ((_ extract 7 0)
(bvadd (concat #b0 ((_ extract 215 208) ymm2))
(concat #b0 ((_ extract 215 208) TMP_BV_256)))))
(a!13 ((_ extract 8 8)
(bvadd (concat #b0 ((_ extract 207 200) ymm2))
(concat #b0 ((_ extract 207 200) TMP_BV_256)))))
(a!14 ((_ extract 7 0)
(bvadd (concat #b0 ((_ extract 207 200) ymm2))
(concat #b0 ((_ extract 207 200) TMP_BV_256)))))
(a!15 ((_ extract 8 8)
(bvadd (concat #b0 ((_ extract 199 192) ymm2))
(concat #b0 ((_ extract 199 192) TMP_BV_256)))))
(a!16 ((_ extract 7 0)
(bvadd (concat #b0 ((_ extract 199 192) ymm2))
(concat #b0 ((_ extract 199 192) TMP_BV_256)))))
(a!17 ((_ extract 8 8)
(bvadd (concat #b0 ((_ extract 191 184) ymm2))
(concat #b0 ((_ extract 191 184) TMP_BV_256)))))
(a!18 ((_ extract 7 0)
(bvadd (concat #b0 ((_ extract 191 184) ymm2))
(concat #b0 ((_ extract 191 184) TMP_BV_256)))))
(a!19 ((_ extract 8 8)
(bvadd (concat #b0 ((_ extract 183 176) ymm2))
(concat #b0 ((_ extract 183 176) TMP_BV_256)))))
(a!20 ((_ extract 7 0)
(bvadd (concat #b0 ((_ extract 183 176) ymm2))
(concat #b0 ((_ extract 183 176) TMP_BV_256)))))
(a!21 ((_ extract 8 8)
(bvadd (concat #b0 ((_ extract 175 168) ymm2))
(concat #b0 ((_ extract 175 168) TMP_BV_256)))))
(a!22 ((_ extract 7 0)
(bvadd (concat #b0 ((_ extract 175 168) ymm2))
(concat #b0 ((_ extract 175 168) TMP_BV_256)))))
(a!23 ((_ extract 8 8)
(bvadd (concat #b0 ((_ extract 167 160) ymm2))
(concat #b0 ((_ extract 167 160) TMP_BV_256)))))
(a!24 ((_ extract 7 0)
(bvadd (concat #b0 ((_ extract 167 160) ymm2))
(concat #b0 ((_ extract 167 160) TMP_BV_256)))))
(a!25 ((_ extract 8 8)
(bvadd (concat #b0 ((_ extract 159 152) ymm2))
(concat #b0 ((_ extract 159 152) TMP_BV_256)))))
(a!26 ((_ extract 7 0)
(bvadd (concat #b0 ((_ extract 159 152) ymm2))
(concat #b0 ((_ extract 159 152) TMP_BV_256)))))
(a!27 ((_ extract 8 8)
(bvadd (concat #b0 ((_ extract 151 144) ymm2))
(concat #b0 ((_ extract 151 144) TMP_BV_256)))))
(a!28 ((_ extract 7 0)
(bvadd (concat #b0 ((_ extract 151 144) ymm2))
(concat #b0 ((_ extract 151 144) TMP_BV_256)))))
(a!29 ((_ extract 8 8)
(bvadd (concat #b0 ((_ extract 143 136) ymm2))
(concat #b0 ((_ extract 143 136) TMP_BV_256)))))
(a!30 ((_ extract 7 0)
(bvadd (concat #b0 ((_ extract 143 136) ymm2))
(concat #b0 ((_ extract 143 136) TMP_BV_256)))))
(a!31 ((_ extract 8 8)
(bvadd (concat #b0 ((_ extract 135 128) ymm2))
(concat #b0 ((_ extract 135 128) TMP_BV_256)))))
(a!32 ((_ extract 7 0)
(bvadd (concat #b0 ((_ extract 135 128) ymm2))
(concat #b0 ((_ extract 135 128) TMP_BV_256)))))
(a!33 ((_ extract 8 8)
(bvadd (concat #b0 ((_ extract 127 120) ymm2))
(concat #b0 ((_ extract 127 120) TMP_BV_256)))))
(a!34 ((_ extract 7 0)
(bvadd (concat #b0 ((_ extract 127 120) ymm2))
(concat #b0 ((_ extract 127 120) TMP_BV_256)))))
(a!35 ((_ extract 8 8)
(bvadd (concat #b0 ((_ extract 119 112) ymm2))
(concat #b0 ((_ extract 119 112) TMP_BV_256)))))
(a!36 ((_ extract 7 0)
(bvadd (concat #b0 ((_ extract 119 112) ymm2))
(concat #b0 ((_ extract 119 112) TMP_BV_256)))))
(a!37 ((_ extract 8 8)
(bvadd (concat #b0 ((_ extract 111 104) ymm2))
(concat #b0 ((_ extract 111 104) TMP_BV_256)))))
(a!38 ((_ extract 7 0)
(bvadd (concat #b0 ((_ extract 111 104) ymm2))
(concat #b0 ((_ extract 111 104) TMP_BV_256)))))
(a!39 ((_ extract 8 8)
(bvadd (concat #b0 ((_ extract 103 96) ymm2))
(concat #b0 ((_ extract 103 96) TMP_BV_256)))))
(a!40 ((_ extract 7 0)
(bvadd (concat #b0 ((_ extract 103 96) ymm2))
(concat #b0 ((_ extract 103 96) TMP_BV_256)))))
(a!41 ((_ extract 8 8)
(bvadd (concat #b0 ((_ extract 95 88) ymm2))
(concat #b0 ((_ extract 95 88) TMP_BV_256)))))
(a!42 ((_ extract 7 0)
(bvadd (concat #b0 ((_ extract 95 88) ymm2))
(concat #b0 ((_ extract 95 88) TMP_BV_256)))))
(a!43 ((_ extract 8 8)
(bvadd (concat #b0 ((_ extract 87 80) ymm2))
(concat #b0 ((_ extract 87 80) TMP_BV_256)))))
(a!44 ((_ extract 7 0)
(bvadd (concat #b0 ((_ extract 87 80) ymm2))
(concat #b0 ((_ extract 87 80) TMP_BV_256)))))
(a!45 ((_ extract 8 8)
(bvadd (concat #b0 ((_ extract 79 72) ymm2))
(concat #b0 ((_ extract 79 72) TMP_BV_256)))))
(a!46 ((_ extract 7 0)
(bvadd (concat #b0 ((_ extract 79 72) ymm2))
(concat #b0 ((_ extract 79 72) TMP_BV_256)))))
(a!47 ((_ extract 8 8)
(bvadd (concat #b0 ((_ extract 71 64) ymm2))
(concat #b0 ((_ extract 71 64) TMP_BV_256)))))
(a!48 ((_ extract 7 0)
(bvadd (concat #b0 ((_ extract 71 64) ymm2))
(concat #b0 ((_ extract 71 64) TMP_BV_256)))))
(a!49 ((_ extract 8 8)
(bvadd (concat #b0 ((_ extract 63 56) ymm2))
(concat #b0 ((_ extract 63 56) TMP_BV_256)))))
(a!50 ((_ extract 7 0)
(bvadd (concat #b0 ((_ extract 63 56) ymm2))
(concat #b0 ((_ extract 63 56) TMP_BV_256)))))
(a!51 ((_ extract 8 8)
(bvadd (concat #b0 ((_ extract 55 48) ymm2))
(concat #b0 ((_ extract 55 48) TMP_BV_256)))))
(a!52 ((_ extract 7 0)
(bvadd (concat #b0 ((_ extract 55 48) ymm2))
(concat #b0 ((_ extract 55 48) TMP_BV_256)))))
(a!53 ((_ extract 8 8)
(bvadd (concat #b0 ((_ extract 47 40) ymm2))
(concat #b0 ((_ extract 47 40) TMP_BV_256)))))
(a!54 ((_ extract 7 0)
(bvadd (concat #b0 ((_ extract 47 40) ymm2))
(concat #b0 ((_ extract 47 40) TMP_BV_256)))))
(a!55 ((_ extract 8 8)
(bvadd (concat #b0 ((_ extract 39 32) ymm2))
(concat #b0 ((_ extract 39 32) TMP_BV_256)))))
(a!56 ((_ extract 7 0)
(bvadd (concat #b0 ((_ extract 39 32) ymm2))
(concat #b0 ((_ extract 39 32) TMP_BV_256)))))
(a!57 ((_ extract 8 8)
(bvadd (concat #b0 ((_ extract 31 24) ymm2))
(concat #b0 ((_ extract 31 24) TMP_BV_256)))))
(a!58 ((_ extract 7 0)
(bvadd (concat #b0 ((_ extract 31 24) ymm2))
(concat #b0 ((_ extract 31 24) TMP_BV_256)))))
(a!59 ((_ extract 8 8)
(bvadd (concat #b0 ((_ extract 23 16) ymm2))
(concat #b0 ((_ extract 23 16) TMP_BV_256)))))
(a!60 ((_ extract 7 0)
(bvadd (concat #b0 ((_ extract 23 16) ymm2))
(concat #b0 ((_ extract 23 16) TMP_BV_256)))))
(a!61 ((_ extract 8 8)
(bvadd (concat #b0 ((_ extract 15 8) ymm2))
(concat #b0 ((_ extract 15 8) TMP_BV_256)))))
(a!62 ((_ extract 7 0)
(bvadd (concat #b0 ((_ extract 15 8) ymm2))
(concat #b0 ((_ extract 15 8) TMP_BV_256)))))
(a!63 ((_ extract 8 8)
(bvadd (concat #b0 ((_ extract 7 0) ymm2))
(concat #b0 ((_ extract 7 0) TMP_BV_256)))))
(a!64 ((_ extract 7 0)
(bvadd (concat #b0 ((_ extract 7 0) ymm2))
(concat #b0 ((_ extract 7 0) TMP_BV_256))))))
(let ((a!65 (concat (ite (= a!59 #b1) #xff a!60)
(concat (ite (= a!61 #b1) #xff a!62)
(ite (= a!63 #b1) #xff a!64)))))
(let ((a!66 (concat (ite (= a!55 #b1) #xff a!56)
(concat (ite (= a!57 #b1) #xff a!58) a!65))))
(let ((a!67 (concat (ite (= a!51 #b1) #xff a!52)
(concat (ite (= a!53 #b1) #xff a!54) a!66))))
(let ((a!68 (concat (ite (= a!47 #b1) #xff a!48)
(concat (ite (= a!49 #b1) #xff a!50) a!67))))
(let ((a!69 (concat (ite (= a!43 #b1) #xff a!44)
(concat (ite (= a!45 #b1) #xff a!46) a!68))))
(let ((a!70 (concat (ite (= a!39 #b1) #xff a!40)
(concat (ite (= a!41 #b1) #xff a!42) a!69))))
(let ((a!71 (concat (ite (= a!35 #b1) #xff a!36)
(concat (ite (= a!37 #b1) #xff a!38) a!70))))
(let ((a!72 (concat (ite (= a!31 #b1) #xff a!32)
(concat (ite (= a!33 #b1) #xff a!34) a!71))))
(let ((a!73 (concat (ite (= a!27 #b1) #xff a!28)
(concat (ite (= a!29 #b1) #xff a!30) a!72))))
(let ((a!74 (concat (ite (= a!23 #b1) #xff a!24)
(concat (ite (= a!25 #b1) #xff a!26) a!73))))
(let ((a!75 (concat (ite (= a!19 #b1) #xff a!20)
(concat (ite (= a!21 #b1) #xff a!22) a!74))))
(let ((a!76 (concat (ite (= a!15 #b1) #xff a!16)
(concat (ite (= a!17 #b1) #xff a!18) a!75))))
(let ((a!77 (concat (ite (= a!11 #b1) #xff a!12)
(concat (ite (= a!13 #b1) #xff a!14) a!76))))
(let ((a!78 (concat (ite (= a!7 #b1) #xff a!8)
(concat (ite (= a!9 #b1) #xff a!10) a!77))))
(let ((a!79 (concat (ite (= a!3 #b1) #xff a!4)
(concat (ite (= a!5 #b1) #xff a!6) a!78))))
(concat (ite (= a!1 #b1) #xff a!2) a!79)))))))))))))))))
)))
(check-sat)
( pop )



